100 0
101 105
105 139
20 56
155 60
51 137
67 125
58 205
110 91
112 141
162 146
31 52
8 95
30 4
46 26
182 21
60 143
36 147
207 33
160 151
190 209
125 61
39 125
17 128
70 154
57 189
46 68
145 45
120 120
198 23
148 180
150 155
57 2
180 63
96 118
120 108
172 150
182 80
173 45
1 51
20 77
51 40
5 140
30 20
140 107
32 65
25 181
24 98
134 118
122 137
66 179
140 110
42 85
115 27
210 200
121 152
2 203
2 77
174 32
198 40
17 37
150 36
125 27
13 178
186 10
13 20 
64 51
51 171
172 2
172 165
184 195
104 123
136 4
4 152
4 128
124 8
45 153
156 124
126 177
201 54
3 37
162 25
146 201
50 98
60 76
170 193
151 174 
160 201
207 8
86 201
76 170
190 171
195 193
60 19
67 35
7 7
18 205
96 138
201 177
200 143